c description: Random 3-CNF over 8 variables and 5 clauses
c generator: CNFgen (0.9.2)
c copyright: (C) 2012-2022 Massimo Lauria <massimo.lauria@uniroma1.it>
c url: https://massimolauria.net/cnfgen
c command line: cnfgen randkcnf 3 8 5
c
p cnf 8 5
-2 -6 8 0
3 -5 7 0
6 7 8 0
-2 4 -8 0
1 4 6 0
